(declare-const delta_w Real)
(declare-const delta_j Int)
(assert (exists
         ((uninterp?1 Real) (|w'?2| Real) (|j'?3| Int) (w?4 Real) (j?5 Int)
            (n?6 Int))
         (and (< (- j?5) 0) (< (- n?6) 0) (<= (+ (- n?6) j?5) 0)
                (= (+ uninterp?1 (- w?4) |w'?2|) 0)
                (= (+ |j'?3| (- j?5) -1) 0) (= delta_j (+ |j'?3| (- j?5)))
                (= delta_w (+ |w'?2| (- w?4))))))
(check-sat)
